p tw 190 203
1 2
2 103
3 14
4 5
4 7
5 6
6 28
7 8
8 9
9 10
10 11
11 12
11 15
12 13
13 28
14 25
15 16
16 17
17 18
18 19
19 20
20 21
21 22
22 23
23 24
24 26
25 36
26 27
27 100
28 29
29 30
30 31
31 70
32 33
33 34
34 35
35 37
36 47
37 38
38 39
38 41
39 40
40 66
41 42
42 43
43 44
44 45
45 46
45 49
46 48
47 58
48 66
49 50
50 51
51 52
52 53
53 54
53 56
54 55
55 66
56 57
57 59
58 69
59 60
60 61
61 62
61 64
62 63
63 66
64 65
65 100
66 67
67 68
68 70
69 80
70 71
71 72
71 85
72 73
73 74
74 75
75 76
76 77
77 78
78 79
79 81
80 91
81 82
82 83
83 84
84 85
85 86
86 87
87 88
88 89
89 90
90 92
91 102
92 93
93 94
94 95
95 96
96 97
97 112
98 99
99 100
100 101
102 104
103 114
103 136
104 105
105 106
106 107
107 108
108 109
109 110
110 111
111 112
112 113
113 115
114 125
115 116
115 98
116 117
117 118
118 119
119 120
120 121
121 122
122 123
123 124
124 126
125 158
126 127
127 128
128 129
129 130
130 131
131 132
132 133
133 134
134 135
135 137
136 147
137 138
138 139
139 140
140 141
141 142
141 32
142 143
143 144
144 145
145 146
146 148
147 158
148 149
149 150
150 151
151 152
152 153
153 154
154 155
155 156
156 157
157 159
158 169
159 160
159 170
160 161
161 162
162 163
163 164
164 165
165 166
166 167
167 168
168 170
169 180
170 171
171 172
171 70
172 173
173 174
174 175
175 176
176 177
176 179
177 178
178 28
179 181
180 3
181 182
182 183
183 184
184 185
184 187
185 186
186 28
187 188
188 189
189 190
190 4
